0 0 0 0
0 1 0 0
0 2 0 0
0 3 0 1
0 4 0 1
0 5 1 1
0 6 0 5
0 7 1 3
0 8 0 3
0 9 1 3
0 10 0 6
0 11 0 10
0 12 2 1
0 13 0 11
0 14 0 13
0 15 2 1
0 16 1 10
0 17 2 13
0 18 0 20
0 19 0 19
0 20 0 17
0 21 1 9
0 22 0 13
0 23 0 15
0 24 0 11
0 25 0 21
0 26 0 21
0 27 1 15
0 28 0 23
0 29 0 23
0 30 0 23
0 31 0 27
